
<<< setup


<<< generate

Version identifier: 22.1.1.0 | 2022-11-27 | 9160aff4d
Tried aggregator 1 time.
MIQCP Presolve eliminated 829 rows and 1 columns.
MIQCP Presolve modified 1497 coefficients.
Reduced MIQCP has 6140 rows, 5697 columns, and 65831 nonzeros.
Reduced MIQCP has 260 binaries, 0 generals, 0 SOSs, and 0 indicators.
Reduced MIQCP has 940 quadratic constraints.
Presolve time = 0,28 sec. (243,38 ticks)
Probing fixed 0 vars, tightened 3870 bounds.
Probing time = 0,14 sec. (142,97 ticks)
Clique table members: 1179.
MIP emphasis: balance optimality and feasibility.
MIP search method: dynamic search.
Parallel mode: deterministic, using up to 12 threads.
Root relaxation solution time = 0,05 sec. (83,69 ticks)

        Nodes                                         Cuts/
   Node  Left     Objective  IInf  Best Integer    Best Bound    ItCnt     Gap

      0     0     4918,1788     0                  19359,5968      397         
      0     0     4910,3544   122                     Cone: 1      568         
      0     0     4900,8755   157                     Cone: 2      810         
      0     0     4892,6883   165                     Cone: 3     1085         
      0     0     4887,1866   178                     Cone: 4     1288         
      0     0     4881,1480   186                     Cone: 5     1537         
      0     0     4873,8725   182                     Cone: 6     1861         
